c turning on binary mode checking
c parsing input formula with 259840 variables and 1039934 clauses
c finished parsing, read 3237482 bytes from proof file
c detected empty clause; start verification via backward checking
c 5535 of 1039934 clauses in core                            
c 1649 of 131639 lemmas in core using 57014 resolution steps
c 0 RAT lemmas in core; 227 redundant literals in core lemmas
s VERIFIED
c verification time: 1.484 seconds
